20 90
0 1 37.1
0 2 42.1
0 3 11.2
0 4 43.0
0 5 3.7
0 6 63.4
0 7 25.9
0 8 19.5
0 9 4.0
0 10 36.9
0 11 73.7
0 12 49.9
0 13 25.7
0 14 23.8
0 15 51.7
0 16 65.1
0 17 51.1
0 18 18.1
0 19 26.8
1 2 77.0
1 3 40.8
1 4 79.3
1 5 35.5
1 6 79.3
1 7 11.6
1 8 30.2
1 9 33.9
1 10 63.8
1 11 105.4
1 12 31.9
1 13 35.5
1 14 18.7
1 15 69.6
1 16 90.8
1 17 75.3
1 18 47.4
1 19 63.6
2 3 36.2
2 4 31.7
2 5 45.2
2 6 85.5
2 7 65.4
2 8 48.9
2 9 44.1
2 10 23.2
2 11 68.1
2 12 91.5
2 13 48.0
2 14 65.9
2 15 75.0
2 16 74.0
2 17 30.2
2 18 46.9
2 19 17.4
3 4 45.4
3 5 14.8
3 6 73.9
3 7 29.2
3 8 14.3
3 9 10.3
3 10 26.5
3 11 79.4
3 12 59.0
3 13 17.7
3 14 31.8
3 15 62.2
3 16 73.6
3 17 40.4
3 18 28.1
3 19 24.6
4 5 44.0
4 6 58.1
4 7 68.6
4 8 59.6
4 9 46.8
4 10 49.9
4 11 37.4
4 12 82.1
4 13 62.8
4 14 62.8
4 15 49.3
4 16 43.0
4 17 60.8
4 18 34.3
4 19 23.5
5 6 60.6
5 7 24.7
5 8 21.3
5 9 5.6
5 10 40.6
5 11 73.2
5 12 46.5
5 13 28.1
5 14 20.9
5 15 49.0
5 16 63.4
5 17 54.8
5 18 16.2
5 19 29.5
6 7 75.0
6 8 81.5
6 9 66.3
6 10 94.6
6 11 48.8
6 12 58.9
6 13 88.6
6 14 61.9
6 15 11.7
6 16 24.6
6 17 108.6
6 18 45.9
6 19 69.7
7 8 19.7
7 9 22.5
7 10 53.0
7 11 96.5
7 12 36.5
7 13 26.0
7 14 13.4
7 15 64.4
7 16 83.7
7 17 65.0
7 18 38.2
7 19 52.1
8 9 15.8
8 10 33.7
8 11 92.5
8 12 54.8
8 13 7.7
8 14 27.9
8 15 70.0
8 16 84.5
8 17 45.4
8 18 37.3
8 19 38.8
9 10 36.7
9 11 77.6
9 12 48.9
9 13 22.4
9 14 22.1
9 15 54.7
9 16 68.7
9 17 50.7
9 18 21.6
9 19 29.7
10 11 87.3
10 12 85.3
10 13 29.8
10 14 58.0
10 15 83.1
10 16 88.5
10 17 14.4
10 18 49.9
10 19 27.4
11 12 97.3
11 13 97.2
11 14 86.9
11 15 47.6
11 16 24.3
11 17 97.9
11 18 58.3
11 19 60.5
12 13 61.9
12 14 27.4
12 15 52.5
12 16 77.2
12 17 98.8
12 18 48.2
12 19 74.9
13 14 35.5
13 15 77.1
13 16 90.6
13 17 40.0
13 18 43.8
13 19 40.6
14 15 51.6
14 16 72.1
14 17 71.3
14 18 29.5
14 19 50.4
15 16 25.1
15 17 97.2
15 18 34.2
15 19 58.8
16 17 101.2
16 18 47.3
16 19 61.3
17 18 64.2
17 19 40.0
18 19 29.4
